NAME : amz1196.141471_123471.tour
COMMENT : Cost = 141471_123471
COMMENT : Found by LKH-AMZ [Keld Helsgaun] Sun May 11 14:47:54 2025
COMMENT : TW viol.: 0 #: 0
TYPE : TOUR
DIMENSION : 155
TOUR_SECTION
96
3
91
153
154
58
66
126
112
95
61
136
105
78
127
148
4
49
17
82
76
144
140
98
41
33
9
125
28
18
118
139
38
21
60
117
62
71
120
113
119
130
138
106
47
129
29
1
59
35
51
100
8
146
147
45
107
83
73
85
152
5
50
110
101
48
121
26
70
142
57
43
16
6
55
14
115
25
67
132
99
7
63
2
94
123
89
53
114
111
32
77
64
87
22
46
13
68
27
90
15
11
97
108
150
79
103
133
34
102
104
36
20
80
131
88
19
81
39
52
44
65
151
124
134
149
42
109
56
23
93
155
75
145
37
122
30
92
24
135
12
72
69
31
141
74
143
86
128
116
54
84
10
137
40
-1
EOF
